1 978 6
2 885 6
3 868 6
4 824 6
6 818 6
11 808 6
36 805 6
54 780 6
335 779 6
848 764 6
2488 760 6



1 992 6
2 852 6
4 841 6
5 827 6
9 821 6
23 816 6
26 802 6
57 800 6
119 798 6
138 782 6
154 764 6
2416 754 6



1 966 6
2 871 7
4 842 6
9 793 6
54 784 6
149 780 6
357 770 6
1093 769 6
1569 764 6



1 903 6
2 897 6
3 849 6
5 838 6
7 818 7
8 800 6
35 759 6



1 937 6
2 885 6
3 851 6
6 830 6
14 755 6



1 977 6
2 923 6
3 852 6
7 822 6
8 771 6
862 762 6



1 995 7
2 835 6
3 802 6
33 783 6
154 780 6
244 766 6



1 945 7
2 861 6
5 856 6
6 855 6
8 832 6
15 829 6
16 784 6
25 770 6
1220 763 6



